\ Model OA
\ LP format - for model browsing. Use MPS format to capture full model detail.
Minimize
  eta
Subject To
 initial_constr: eta >= 0
 R1: z_0_0 + z_0_1 + z_0_2 + z_0_3 + z_0_4 = 1
 R2: z_1_0 + z_1_1 + z_1_2 + z_1_3 + z_1_4 = 1
 R3: z_2_0 + z_2_1 + z_2_2 + z_2_3 + z_2_4 = 1
 R4: z_3_0 + z_3_1 + z_3_2 + z_3_3 + z_3_4 = 1
 R5: z_4_0 + z_4_1 + z_4_2 + z_4_3 + z_4_4 = 1
 R6: z_5_0 + z_5_1 + z_5_2 + z_5_3 + z_5_4 = 1
 R7: z_6_0 + z_6_1 + z_6_2 + z_6_3 + z_6_4 = 1
 R8: z_7_0 + z_7_1 + z_7_2 + z_7_3 + z_7_4 = 1
 R9: z_8_0 + z_8_1 + z_8_2 + z_8_3 + z_8_4 = 1
 R10: z_9_0 + z_9_1 + z_9_2 + z_9_3 + z_9_4 = 1
 R11: z_10_0 + z_10_1 + z_10_2 + z_10_3 + z_10_4 = 1
 R12: z_11_0 + z_11_1 + z_11_2 + z_11_3 + z_11_4 = 1
 R13: z_12_0 + z_12_1 + z_12_2 + z_12_3 + z_12_4 = 1
 R14: z_13_0 + z_13_1 + z_13_2 + z_13_3 + z_13_4 = 1
 R15: z_14_0 + z_14_1 + z_14_2 + z_14_3 + z_14_4 = 1
 R16: z_15_0 + z_15_1 + z_15_2 + z_15_3 + z_15_4 = 1
 R17: z_16_0 + z_16_1 + z_16_2 + z_16_3 + z_16_4 = 1
 R18: z_17_0 + z_17_1 + z_17_2 + z_17_3 + z_17_4 = 1
 R19: z_18_0 + z_18_1 + z_18_2 + z_18_3 + z_18_4 = 1
 R20: z_19_0 + z_19_1 + z_19_2 + z_19_3 + z_19_4 = 1
 R21: z_0_0 + z_1_0 + z_2_0 + z_3_0 + z_4_0 + z_5_0 + z_6_0 + z_7_0 + z_8_0
   + z_9_0 + z_10_0 + z_11_0 + z_12_0 + z_13_0 + z_14_0 + z_15_0 + z_16_0
   + z_17_0 + z_18_0 + z_19_0 >= 1
 R22: z_0_1 + z_1_1 + z_2_1 + z_3_1 + z_4_1 + z_5_1 + z_6_1 + z_7_1 + z_8_1
   + z_9_1 + z_10_1 + z_11_1 + z_12_1 + z_13_1 + z_14_1 + z_15_1 + z_16_1
   + z_17_1 + z_18_1 + z_19_1 >= 1
 R23: z_0_2 + z_1_2 + z_2_2 + z_3_2 + z_4_2 + z_5_2 + z_6_2 + z_7_2 + z_8_2
   + z_9_2 + z_10_2 + z_11_2 + z_12_2 + z_13_2 + z_14_2 + z_15_2 + z_16_2
   + z_17_2 + z_18_2 + z_19_2 >= 1
 R24: z_0_3 + z_1_3 + z_2_3 + z_3_3 + z_4_3 + z_5_3 + z_6_3 + z_7_3 + z_8_3
   + z_9_3 + z_10_3 + z_11_3 + z_12_3 + z_13_3 + z_14_3 + z_15_3 + z_16_3
   + z_17_3 + z_18_3 + z_19_3 >= 1
 R25: z_0_4 + z_1_4 + z_2_4 + z_3_4 + z_4_4 + z_5_4 + z_6_4 + z_7_4 + z_8_4
   + z_9_4 + z_10_4 + z_11_4 + z_12_4 + z_13_4 + z_14_4 + z_15_4 + z_16_4
   + z_17_4 + z_18_4 + z_19_4 >= 1
 R26: eta - 2 x_0_0 - 1609 z_0_0 >= -1610
 R27: eta - 2 x_1_0 - 1609 z_0_1 >= -1610
 R28: eta - 2 x_2_0 - 1609 z_0_2 >= -1610
 R29: eta - 2 x_3_0 - 1609 z_0_3 >= -1610
 R30: eta - 2 x_4_0 - 1609 z_0_4 >= -1610
 R31: eta + 2 x_0_0 - 1609 z_0_0 >= -1610
 R32: eta + 2 x_1_0 - 1609 z_0_1 >= -1610
 R33: eta + 2 x_2_0 - 1609 z_0_2 >= -1610
 R34: eta + 2 x_3_0 - 1609 z_0_3 >= -1610
 R35: eta + 2 x_4_0 - 1609 z_0_4 >= -1610
 R36: eta - 2 x_0_1 - 1609 z_0_0 >= -1610
 R37: eta - 2 x_1_1 - 1609 z_0_1 >= -1610
 R38: eta - 2 x_2_1 - 1609 z_0_2 >= -1610
 R39: eta - 2 x_3_1 - 1609 z_0_3 >= -1610
 R40: eta - 2 x_4_1 - 1609 z_0_4 >= -1610
 R41: eta + 2 x_0_1 - 1609 z_0_0 >= -1610
 R42: eta + 2 x_1_1 - 1609 z_0_1 >= -1610
 R43: eta + 2 x_2_1 - 1609 z_0_2 >= -1610
 R44: eta + 2 x_3_1 - 1609 z_0_3 >= -1610
 R45: eta + 2 x_4_1 - 1609 z_0_4 >= -1610
 R46: eta - 2 x_0_0 - 1609 z_1_0 >= -1610
 R47: eta - 2 x_1_0 - 1609 z_1_1 >= -1610
 R48: eta - 2 x_2_0 - 1609 z_1_2 >= -1610
 R49: eta - 2 x_3_0 - 1609 z_1_3 >= -1610
 R50: eta - 2 x_4_0 - 1609 z_1_4 >= -1610
 R51: eta + 2 x_0_0 - 1609 z_1_0 >= -1610
 R52: eta + 2 x_1_0 - 1609 z_1_1 >= -1610
 R53: eta + 2 x_2_0 - 1609 z_1_2 >= -1610
 R54: eta + 2 x_3_0 - 1609 z_1_3 >= -1610
 R55: eta + 2 x_4_0 - 1609 z_1_4 >= -1610
 R56: eta - 2 x_0_1 - 1609 z_1_0 >= -1612
 R57: eta - 2 x_1_1 - 1609 z_1_1 >= -1612
 R58: eta - 2 x_2_1 - 1609 z_1_2 >= -1612
 R59: eta - 2 x_3_1 - 1609 z_1_3 >= -1612
 R60: eta - 2 x_4_1 - 1609 z_1_4 >= -1612
 R61: eta + 2 x_0_1 - 1609 z_1_0 >= -1608
 R62: eta + 2 x_1_1 - 1609 z_1_1 >= -1608
 R63: eta + 2 x_2_1 - 1609 z_1_2 >= -1608
 R64: eta + 2 x_3_1 - 1609 z_1_3 >= -1608
 R65: eta + 2 x_4_1 - 1609 z_1_4 >= -1608
 R66: eta - 2 x_0_0 - 1609 z_2_0 >= -1610
 R67: eta - 2 x_1_0 - 1609 z_2_1 >= -1610
 R68: eta - 2 x_2_0 - 1609 z_2_2 >= -1610
 R69: eta - 2 x_3_0 - 1609 z_2_3 >= -1610
 R70: eta - 2 x_4_0 - 1609 z_2_4 >= -1610
 R71: eta + 2 x_0_0 - 1609 z_2_0 >= -1610
 R72: eta + 2 x_1_0 - 1609 z_2_1 >= -1610
 R73: eta + 2 x_2_0 - 1609 z_2_2 >= -1610
 R74: eta + 2 x_3_0 - 1609 z_2_3 >= -1610
 R75: eta + 2 x_4_0 - 1609 z_2_4 >= -1610
 R76: eta - 2 x_0_1 - 1609 z_2_0 >= -1614
 R77: eta - 2 x_1_1 - 1609 z_2_1 >= -1614
 R78: eta - 2 x_2_1 - 1609 z_2_2 >= -1614
 R79: eta - 2 x_3_1 - 1609 z_2_3 >= -1614
 R80: eta - 2 x_4_1 - 1609 z_2_4 >= -1614
 R81: eta + 2 x_0_1 - 1609 z_2_0 >= -1606
 R82: eta + 2 x_1_1 - 1609 z_2_1 >= -1606
 R83: eta + 2 x_2_1 - 1609 z_2_2 >= -1606
 R84: eta + 2 x_3_1 - 1609 z_2_3 >= -1606
 R85: eta + 2 x_4_1 - 1609 z_2_4 >= -1606
 R86: eta - 2 x_0_0 - 1609 z_3_0 >= -1610
 R87: eta - 2 x_1_0 - 1609 z_3_1 >= -1610
 R88: eta - 2 x_2_0 - 1609 z_3_2 >= -1610
 R89: eta - 2 x_3_0 - 1609 z_3_3 >= -1610
 R90: eta - 2 x_4_0 - 1609 z_3_4 >= -1610
 R91: eta + 2 x_0_0 - 1609 z_3_0 >= -1610
 R92: eta + 2 x_1_0 - 1609 z_3_1 >= -1610
 R93: eta + 2 x_2_0 - 1609 z_3_2 >= -1610
 R94: eta + 2 x_3_0 - 1609 z_3_3 >= -1610
 R95: eta + 2 x_4_0 - 1609 z_3_4 >= -1610
 R96: eta - 2 x_0_1 - 1609 z_3_0 >= -1616
 R97: eta - 2 x_1_1 - 1609 z_3_1 >= -1616
 R98: eta - 2 x_2_1 - 1609 z_3_2 >= -1616
 R99: eta - 2 x_3_1 - 1609 z_3_3 >= -1616
 R100: eta - 2 x_4_1 - 1609 z_3_4 >= -1616
 R101: eta + 2 x_0_1 - 1609 z_3_0 >= -1604
 R102: eta + 2 x_1_1 - 1609 z_3_1 >= -1604
 R103: eta + 2 x_2_1 - 1609 z_3_2 >= -1604
 R104: eta + 2 x_3_1 - 1609 z_3_3 >= -1604
 R105: eta + 2 x_4_1 - 1609 z_3_4 >= -1604
 R106: eta - 2 x_0_0 - 1609 z_4_0 >= -1630
 R107: eta - 2 x_1_0 - 1609 z_4_1 >= -1630
 R108: eta - 2 x_2_0 - 1609 z_4_2 >= -1630
 R109: eta - 2 x_3_0 - 1609 z_4_3 >= -1630
 R110: eta - 2 x_4_0 - 1609 z_4_4 >= -1630
 R111: eta + 2 x_0_0 - 1609 z_4_0 >= -1590
 R112: eta + 2 x_1_0 - 1609 z_4_1 >= -1590
 R113: eta + 2 x_2_0 - 1609 z_4_2 >= -1590
 R114: eta + 2 x_3_0 - 1609 z_4_3 >= -1590
 R115: eta + 2 x_4_0 - 1609 z_4_4 >= -1590
 R116: eta - 2 x_0_1 - 1609 z_4_0 >= -1610
 R117: eta - 2 x_1_1 - 1609 z_4_1 >= -1610
 R118: eta - 2 x_2_1 - 1609 z_4_2 >= -1610
 R119: eta - 2 x_3_1 - 1609 z_4_3 >= -1610
 R120: eta - 2 x_4_1 - 1609 z_4_4 >= -1610
 R121: eta + 2 x_0_1 - 1609 z_4_0 >= -1610
 R122: eta + 2 x_1_1 - 1609 z_4_1 >= -1610
 R123: eta + 2 x_2_1 - 1609 z_4_2 >= -1610
 R124: eta + 2 x_3_1 - 1609 z_4_3 >= -1610
 R125: eta + 2 x_4_1 - 1609 z_4_4 >= -1610
 R126: eta - 2 x_0_0 - 1609 z_5_0 >= -1630
 R127: eta - 2 x_1_0 - 1609 z_5_1 >= -1630
 R128: eta - 2 x_2_0 - 1609 z_5_2 >= -1630
 R129: eta - 2 x_3_0 - 1609 z_5_3 >= -1630
 R130: eta - 2 x_4_0 - 1609 z_5_4 >= -1630
 R131: eta + 2 x_0_0 - 1609 z_5_0 >= -1590
 R132: eta + 2 x_1_0 - 1609 z_5_1 >= -1590
 R133: eta + 2 x_2_0 - 1609 z_5_2 >= -1590
 R134: eta + 2 x_3_0 - 1609 z_5_3 >= -1590
 R135: eta + 2 x_4_0 - 1609 z_5_4 >= -1590
 R136: eta - 2 x_0_1 - 1609 z_5_0 >= -1612
 R137: eta - 2 x_1_1 - 1609 z_5_1 >= -1612
 R138: eta - 2 x_2_1 - 1609 z_5_2 >= -1612
 R139: eta - 2 x_3_1 - 1609 z_5_3 >= -1612
 R140: eta - 2 x_4_1 - 1609 z_5_4 >= -1612
 R141: eta + 2 x_0_1 - 1609 z_5_0 >= -1608
 R142: eta + 2 x_1_1 - 1609 z_5_1 >= -1608
 R143: eta + 2 x_2_1 - 1609 z_5_2 >= -1608
 R144: eta + 2 x_3_1 - 1609 z_5_3 >= -1608
 R145: eta + 2 x_4_1 - 1609 z_5_4 >= -1608
 R146: eta - 2 x_0_0 - 1609 z_6_0 >= -1630
 R147: eta - 2 x_1_0 - 1609 z_6_1 >= -1630
 R148: eta - 2 x_2_0 - 1609 z_6_2 >= -1630
 R149: eta - 2 x_3_0 - 1609 z_6_3 >= -1630
 R150: eta - 2 x_4_0 - 1609 z_6_4 >= -1630
 R151: eta + 2 x_0_0 - 1609 z_6_0 >= -1590
 R152: eta + 2 x_1_0 - 1609 z_6_1 >= -1590
 R153: eta + 2 x_2_0 - 1609 z_6_2 >= -1590
 R154: eta + 2 x_3_0 - 1609 z_6_3 >= -1590
 R155: eta + 2 x_4_0 - 1609 z_6_4 >= -1590
 R156: eta - 2 x_0_1 - 1609 z_6_0 >= -1614
 R157: eta - 2 x_1_1 - 1609 z_6_1 >= -1614
 R158: eta - 2 x_2_1 - 1609 z_6_2 >= -1614
 R159: eta - 2 x_3_1 - 1609 z_6_3 >= -1614
 R160: eta - 2 x_4_1 - 1609 z_6_4 >= -1614
 R161: eta + 2 x_0_1 - 1609 z_6_0 >= -1606
 R162: eta + 2 x_1_1 - 1609 z_6_1 >= -1606
 R163: eta + 2 x_2_1 - 1609 z_6_2 >= -1606
 R164: eta + 2 x_3_1 - 1609 z_6_3 >= -1606
 R165: eta + 2 x_4_1 - 1609 z_6_4 >= -1606
 R166: eta - 2 x_0_0 - 1609 z_7_0 >= -1630
 R167: eta - 2 x_1_0 - 1609 z_7_1 >= -1630
 R168: eta - 2 x_2_0 - 1609 z_7_2 >= -1630
 R169: eta - 2 x_3_0 - 1609 z_7_3 >= -1630
 R170: eta - 2 x_4_0 - 1609 z_7_4 >= -1630
 R171: eta + 2 x_0_0 - 1609 z_7_0 >= -1590
 R172: eta + 2 x_1_0 - 1609 z_7_1 >= -1590
 R173: eta + 2 x_2_0 - 1609 z_7_2 >= -1590
 R174: eta + 2 x_3_0 - 1609 z_7_3 >= -1590
 R175: eta + 2 x_4_0 - 1609 z_7_4 >= -1590
 R176: eta - 2 x_0_1 - 1609 z_7_0 >= -1616
 R177: eta - 2 x_1_1 - 1609 z_7_1 >= -1616
 R178: eta - 2 x_2_1 - 1609 z_7_2 >= -1616
 R179: eta - 2 x_3_1 - 1609 z_7_3 >= -1616
 R180: eta - 2 x_4_1 - 1609 z_7_4 >= -1616
 R181: eta + 2 x_0_1 - 1609 z_7_0 >= -1604
 R182: eta + 2 x_1_1 - 1609 z_7_1 >= -1604
 R183: eta + 2 x_2_1 - 1609 z_7_2 >= -1604
 R184: eta + 2 x_3_1 - 1609 z_7_3 >= -1604
 R185: eta + 2 x_4_1 - 1609 z_7_4 >= -1604
 R186: eta - 2 x_0_0 - 1609 z_8_0 >= -1650
 R187: eta - 2 x_1_0 - 1609 z_8_1 >= -1650
 R188: eta - 2 x_2_0 - 1609 z_8_2 >= -1650
 R189: eta - 2 x_3_0 - 1609 z_8_3 >= -1650
 R190: eta - 2 x_4_0 - 1609 z_8_4 >= -1650
 R191: eta + 2 x_0_0 - 1609 z_8_0 >= -1570
 R192: eta + 2 x_1_0 - 1609 z_8_1 >= -1570
 R193: eta + 2 x_2_0 - 1609 z_8_2 >= -1570
 R194: eta + 2 x_3_0 - 1609 z_8_3 >= -1570
 R195: eta + 2 x_4_0 - 1609 z_8_4 >= -1570
 R196: eta - 2 x_0_1 - 1609 z_8_0 >= -1610
 R197: eta - 2 x_1_1 - 1609 z_8_1 >= -1610
 R198: eta - 2 x_2_1 - 1609 z_8_2 >= -1610
 R199: eta - 2 x_3_1 - 1609 z_8_3 >= -1610
 R200: eta - 2 x_4_1 - 1609 z_8_4 >= -1610
 R201: eta + 2 x_0_1 - 1609 z_8_0 >= -1610
 R202: eta + 2 x_1_1 - 1609 z_8_1 >= -1610
 R203: eta + 2 x_2_1 - 1609 z_8_2 >= -1610
 R204: eta + 2 x_3_1 - 1609 z_8_3 >= -1610
 R205: eta + 2 x_4_1 - 1609 z_8_4 >= -1610
 R206: eta - 2 x_0_0 - 1609 z_9_0 >= -1650
 R207: eta - 2 x_1_0 - 1609 z_9_1 >= -1650
 R208: eta - 2 x_2_0 - 1609 z_9_2 >= -1650
 R209: eta - 2 x_3_0 - 1609 z_9_3 >= -1650
 R210: eta - 2 x_4_0 - 1609 z_9_4 >= -1650
 R211: eta + 2 x_0_0 - 1609 z_9_0 >= -1570
 R212: eta + 2 x_1_0 - 1609 z_9_1 >= -1570
 R213: eta + 2 x_2_0 - 1609 z_9_2 >= -1570
 R214: eta + 2 x_3_0 - 1609 z_9_3 >= -1570
 R215: eta + 2 x_4_0 - 1609 z_9_4 >= -1570
 R216: eta - 2 x_0_1 - 1609 z_9_0 >= -1612
 R217: eta - 2 x_1_1 - 1609 z_9_1 >= -1612
 R218: eta - 2 x_2_1 - 1609 z_9_2 >= -1612
 R219: eta - 2 x_3_1 - 1609 z_9_3 >= -1612
 R220: eta - 2 x_4_1 - 1609 z_9_4 >= -1612
 R221: eta + 2 x_0_1 - 1609 z_9_0 >= -1608
 R222: eta + 2 x_1_1 - 1609 z_9_1 >= -1608
 R223: eta + 2 x_2_1 - 1609 z_9_2 >= -1608
 R224: eta + 2 x_3_1 - 1609 z_9_3 >= -1608
 R225: eta + 2 x_4_1 - 1609 z_9_4 >= -1608
 R226: eta - 2 x_0_0 - 1609 z_10_0 >= -1650
 R227: eta - 2 x_1_0 - 1609 z_10_1 >= -1650
 R228: eta - 2 x_2_0 - 1609 z_10_2 >= -1650
 R229: eta - 2 x_3_0 - 1609 z_10_3 >= -1650
 R230: eta - 2 x_4_0 - 1609 z_10_4 >= -1650
 R231: eta + 2 x_0_0 - 1609 z_10_0 >= -1570
 R232: eta + 2 x_1_0 - 1609 z_10_1 >= -1570
 R233: eta + 2 x_2_0 - 1609 z_10_2 >= -1570
 R234: eta + 2 x_3_0 - 1609 z_10_3 >= -1570
 R235: eta + 2 x_4_0 - 1609 z_10_4 >= -1570
 R236: eta - 2 x_0_1 - 1609 z_10_0 >= -1614
 R237: eta - 2 x_1_1 - 1609 z_10_1 >= -1614
 R238: eta - 2 x_2_1 - 1609 z_10_2 >= -1614
 R239: eta - 2 x_3_1 - 1609 z_10_3 >= -1614
 R240: eta - 2 x_4_1 - 1609 z_10_4 >= -1614
 R241: eta + 2 x_0_1 - 1609 z_10_0 >= -1606
 R242: eta + 2 x_1_1 - 1609 z_10_1 >= -1606
 R243: eta + 2 x_2_1 - 1609 z_10_2 >= -1606
 R244: eta + 2 x_3_1 - 1609 z_10_3 >= -1606
 R245: eta + 2 x_4_1 - 1609 z_10_4 >= -1606
 R246: eta - 2 x_0_0 - 1609 z_11_0 >= -1650
 R247: eta - 2 x_1_0 - 1609 z_11_1 >= -1650
 R248: eta - 2 x_2_0 - 1609 z_11_2 >= -1650
 R249: eta - 2 x_3_0 - 1609 z_11_3 >= -1650
 R250: eta - 2 x_4_0 - 1609 z_11_4 >= -1650
 R251: eta + 2 x_0_0 - 1609 z_11_0 >= -1570
 R252: eta + 2 x_1_0 - 1609 z_11_1 >= -1570
 R253: eta + 2 x_2_0 - 1609 z_11_2 >= -1570
 R254: eta + 2 x_3_0 - 1609 z_11_3 >= -1570
 R255: eta + 2 x_4_0 - 1609 z_11_4 >= -1570
 R256: eta - 2 x_0_1 - 1609 z_11_0 >= -1616
 R257: eta - 2 x_1_1 - 1609 z_11_1 >= -1616
 R258: eta - 2 x_2_1 - 1609 z_11_2 >= -1616
 R259: eta - 2 x_3_1 - 1609 z_11_3 >= -1616
 R260: eta - 2 x_4_1 - 1609 z_11_4 >= -1616
 R261: eta + 2 x_0_1 - 1609 z_11_0 >= -1604
 R262: eta + 2 x_1_1 - 1609 z_11_1 >= -1604
 R263: eta + 2 x_2_1 - 1609 z_11_2 >= -1604
 R264: eta + 2 x_3_1 - 1609 z_11_3 >= -1604
 R265: eta + 2 x_4_1 - 1609 z_11_4 >= -1604
 R266: eta - 2 x_0_0 - 1609 z_12_0 >= -1670
 R267: eta - 2 x_1_0 - 1609 z_12_1 >= -1670
 R268: eta - 2 x_2_0 - 1609 z_12_2 >= -1670
 R269: eta - 2 x_3_0 - 1609 z_12_3 >= -1670
 R270: eta - 2 x_4_0 - 1609 z_12_4 >= -1670
 R271: eta + 2 x_0_0 - 1609 z_12_0 >= -1550
 R272: eta + 2 x_1_0 - 1609 z_12_1 >= -1550
 R273: eta + 2 x_2_0 - 1609 z_12_2 >= -1550
 R274: eta + 2 x_3_0 - 1609 z_12_3 >= -1550
 R275: eta + 2 x_4_0 - 1609 z_12_4 >= -1550
 R276: eta - 2 x_0_1 - 1609 z_12_0 >= -1610
 R277: eta - 2 x_1_1 - 1609 z_12_1 >= -1610
 R278: eta - 2 x_2_1 - 1609 z_12_2 >= -1610
 R279: eta - 2 x_3_1 - 1609 z_12_3 >= -1610
 R280: eta - 2 x_4_1 - 1609 z_12_4 >= -1610
 R281: eta + 2 x_0_1 - 1609 z_12_0 >= -1610
 R282: eta + 2 x_1_1 - 1609 z_12_1 >= -1610
 R283: eta + 2 x_2_1 - 1609 z_12_2 >= -1610
 R284: eta + 2 x_3_1 - 1609 z_12_3 >= -1610
 R285: eta + 2 x_4_1 - 1609 z_12_4 >= -1610
 R286: eta - 2 x_0_0 - 1609 z_13_0 >= -1670
 R287: eta - 2 x_1_0 - 1609 z_13_1 >= -1670
 R288: eta - 2 x_2_0 - 1609 z_13_2 >= -1670
 R289: eta - 2 x_3_0 - 1609 z_13_3 >= -1670
 R290: eta - 2 x_4_0 - 1609 z_13_4 >= -1670
 R291: eta + 2 x_0_0 - 1609 z_13_0 >= -1550
 R292: eta + 2 x_1_0 - 1609 z_13_1 >= -1550
 R293: eta + 2 x_2_0 - 1609 z_13_2 >= -1550
 R294: eta + 2 x_3_0 - 1609 z_13_3 >= -1550
 R295: eta + 2 x_4_0 - 1609 z_13_4 >= -1550
 R296: eta - 2 x_0_1 - 1609 z_13_0 >= -1612
 R297: eta - 2 x_1_1 - 1609 z_13_1 >= -1612
 R298: eta - 2 x_2_1 - 1609 z_13_2 >= -1612
 R299: eta - 2 x_3_1 - 1609 z_13_3 >= -1612
 R300: eta - 2 x_4_1 - 1609 z_13_4 >= -1612
 R301: eta + 2 x_0_1 - 1609 z_13_0 >= -1608
 R302: eta + 2 x_1_1 - 1609 z_13_1 >= -1608
 R303: eta + 2 x_2_1 - 1609 z_13_2 >= -1608
 R304: eta + 2 x_3_1 - 1609 z_13_3 >= -1608
 R305: eta + 2 x_4_1 - 1609 z_13_4 >= -1608
 R306: eta - 2 x_0_0 - 1609 z_14_0 >= -1670
 R307: eta - 2 x_1_0 - 1609 z_14_1 >= -1670
 R308: eta - 2 x_2_0 - 1609 z_14_2 >= -1670
 R309: eta - 2 x_3_0 - 1609 z_14_3 >= -1670
 R310: eta - 2 x_4_0 - 1609 z_14_4 >= -1670
 R311: eta + 2 x_0_0 - 1609 z_14_0 >= -1550
 R312: eta + 2 x_1_0 - 1609 z_14_1 >= -1550
 R313: eta + 2 x_2_0 - 1609 z_14_2 >= -1550
 R314: eta + 2 x_3_0 - 1609 z_14_3 >= -1550
 R315: eta + 2 x_4_0 - 1609 z_14_4 >= -1550
 R316: eta - 2 x_0_1 - 1609 z_14_0 >= -1614
 R317: eta - 2 x_1_1 - 1609 z_14_1 >= -1614
 R318: eta - 2 x_2_1 - 1609 z_14_2 >= -1614
 R319: eta - 2 x_3_1 - 1609 z_14_3 >= -1614
 R320: eta - 2 x_4_1 - 1609 z_14_4 >= -1614
 R321: eta + 2 x_0_1 - 1609 z_14_0 >= -1606
 R322: eta + 2 x_1_1 - 1609 z_14_1 >= -1606
 R323: eta + 2 x_2_1 - 1609 z_14_2 >= -1606
 R324: eta + 2 x_3_1 - 1609 z_14_3 >= -1606
 R325: eta + 2 x_4_1 - 1609 z_14_4 >= -1606
 R326: eta - 2 x_0_0 - 1609 z_15_0 >= -1670
 R327: eta - 2 x_1_0 - 1609 z_15_1 >= -1670
 R328: eta - 2 x_2_0 - 1609 z_15_2 >= -1670
 R329: eta - 2 x_3_0 - 1609 z_15_3 >= -1670
 R330: eta - 2 x_4_0 - 1609 z_15_4 >= -1670
 R331: eta + 2 x_0_0 - 1609 z_15_0 >= -1550
 R332: eta + 2 x_1_0 - 1609 z_15_1 >= -1550
 R333: eta + 2 x_2_0 - 1609 z_15_2 >= -1550
 R334: eta + 2 x_3_0 - 1609 z_15_3 >= -1550
 R335: eta + 2 x_4_0 - 1609 z_15_4 >= -1550
 R336: eta - 2 x_0_1 - 1609 z_15_0 >= -1616
 R337: eta - 2 x_1_1 - 1609 z_15_1 >= -1616
 R338: eta - 2 x_2_1 - 1609 z_15_2 >= -1616
 R339: eta - 2 x_3_1 - 1609 z_15_3 >= -1616
 R340: eta - 2 x_4_1 - 1609 z_15_4 >= -1616
 R341: eta + 2 x_0_1 - 1609 z_15_0 >= -1604
 R342: eta + 2 x_1_1 - 1609 z_15_1 >= -1604
 R343: eta + 2 x_2_1 - 1609 z_15_2 >= -1604
 R344: eta + 2 x_3_1 - 1609 z_15_3 >= -1604
 R345: eta + 2 x_4_1 - 1609 z_15_4 >= -1604
 R346: eta - 2 x_0_0 - 1609 z_16_0 >= -1690
 R347: eta - 2 x_1_0 - 1609 z_16_1 >= -1690
 R348: eta - 2 x_2_0 - 1609 z_16_2 >= -1690
 R349: eta - 2 x_3_0 - 1609 z_16_3 >= -1690
 R350: eta - 2 x_4_0 - 1609 z_16_4 >= -1690
 R351: eta + 2 x_0_0 - 1609 z_16_0 >= -1530
 R352: eta + 2 x_1_0 - 1609 z_16_1 >= -1530
 R353: eta + 2 x_2_0 - 1609 z_16_2 >= -1530
 R354: eta + 2 x_3_0 - 1609 z_16_3 >= -1530
 R355: eta + 2 x_4_0 - 1609 z_16_4 >= -1530
 R356: eta - 2 x_0_1 - 1609 z_16_0 >= -1610
 R357: eta - 2 x_1_1 - 1609 z_16_1 >= -1610
 R358: eta - 2 x_2_1 - 1609 z_16_2 >= -1610
 R359: eta - 2 x_3_1 - 1609 z_16_3 >= -1610
 R360: eta - 2 x_4_1 - 1609 z_16_4 >= -1610
 R361: eta + 2 x_0_1 - 1609 z_16_0 >= -1610
 R362: eta + 2 x_1_1 - 1609 z_16_1 >= -1610
 R363: eta + 2 x_2_1 - 1609 z_16_2 >= -1610
 R364: eta + 2 x_3_1 - 1609 z_16_3 >= -1610
 R365: eta + 2 x_4_1 - 1609 z_16_4 >= -1610
 R366: eta - 2 x_0_0 - 1609 z_17_0 >= -1690
 R367: eta - 2 x_1_0 - 1609 z_17_1 >= -1690
 R368: eta - 2 x_2_0 - 1609 z_17_2 >= -1690
 R369: eta - 2 x_3_0 - 1609 z_17_3 >= -1690
 R370: eta - 2 x_4_0 - 1609 z_17_4 >= -1690
 R371: eta + 2 x_0_0 - 1609 z_17_0 >= -1530
 R372: eta + 2 x_1_0 - 1609 z_17_1 >= -1530
 R373: eta + 2 x_2_0 - 1609 z_17_2 >= -1530
 R374: eta + 2 x_3_0 - 1609 z_17_3 >= -1530
 R375: eta + 2 x_4_0 - 1609 z_17_4 >= -1530
 R376: eta - 2 x_0_1 - 1609 z_17_0 >= -1612
 R377: eta - 2 x_1_1 - 1609 z_17_1 >= -1612
 R378: eta - 2 x_2_1 - 1609 z_17_2 >= -1612
 R379: eta - 2 x_3_1 - 1609 z_17_3 >= -1612
 R380: eta - 2 x_4_1 - 1609 z_17_4 >= -1612
 R381: eta + 2 x_0_1 - 1609 z_17_0 >= -1608
 R382: eta + 2 x_1_1 - 1609 z_17_1 >= -1608
 R383: eta + 2 x_2_1 - 1609 z_17_2 >= -1608
 R384: eta + 2 x_3_1 - 1609 z_17_3 >= -1608
 R385: eta + 2 x_4_1 - 1609 z_17_4 >= -1608
 R386: eta - 2 x_0_0 - 1609 z_18_0 >= -1690
 R387: eta - 2 x_1_0 - 1609 z_18_1 >= -1690
 R388: eta - 2 x_2_0 - 1609 z_18_2 >= -1690
 R389: eta - 2 x_3_0 - 1609 z_18_3 >= -1690
 R390: eta - 2 x_4_0 - 1609 z_18_4 >= -1690
 R391: eta + 2 x_0_0 - 1609 z_18_0 >= -1530
 R392: eta + 2 x_1_0 - 1609 z_18_1 >= -1530
 R393: eta + 2 x_2_0 - 1609 z_18_2 >= -1530
 R394: eta + 2 x_3_0 - 1609 z_18_3 >= -1530
 R395: eta + 2 x_4_0 - 1609 z_18_4 >= -1530
 R396: eta - 2 x_0_1 - 1609 z_18_0 >= -1614
 R397: eta - 2 x_1_1 - 1609 z_18_1 >= -1614
 R398: eta - 2 x_2_1 - 1609 z_18_2 >= -1614
 R399: eta - 2 x_3_1 - 1609 z_18_3 >= -1614
 R400: eta - 2 x_4_1 - 1609 z_18_4 >= -1614
 R401: eta + 2 x_0_1 - 1609 z_18_0 >= -1606
 R402: eta + 2 x_1_1 - 1609 z_18_1 >= -1606
 R403: eta + 2 x_2_1 - 1609 z_18_2 >= -1606
 R404: eta + 2 x_3_1 - 1609 z_18_3 >= -1606
 R405: eta + 2 x_4_1 - 1609 z_18_4 >= -1606
 R406: eta - 2 x_0_0 - 1609 z_19_0 >= -1690
 R407: eta - 2 x_1_0 - 1609 z_19_1 >= -1690
 R408: eta - 2 x_2_0 - 1609 z_19_2 >= -1690
 R409: eta - 2 x_3_0 - 1609 z_19_3 >= -1690
 R410: eta - 2 x_4_0 - 1609 z_19_4 >= -1690
 R411: eta + 2 x_0_0 - 1609 z_19_0 >= -1530
 R412: eta + 2 x_1_0 - 1609 z_19_1 >= -1530
 R413: eta + 2 x_2_0 - 1609 z_19_2 >= -1530
 R414: eta + 2 x_3_0 - 1609 z_19_3 >= -1530
 R415: eta + 2 x_4_0 - 1609 z_19_4 >= -1530
 R416: eta - 2 x_0_1 - 1609 z_19_0 >= -1616
 R417: eta - 2 x_1_1 - 1609 z_19_1 >= -1616
 R418: eta - 2 x_2_1 - 1609 z_19_2 >= -1616
 R419: eta - 2 x_3_1 - 1609 z_19_3 >= -1616
 R420: eta - 2 x_4_1 - 1609 z_19_4 >= -1616
 R421: eta + 2 x_0_1 - 1609 z_19_0 >= -1604
 R422: eta + 2 x_1_1 - 1609 z_19_1 >= -1604
 R423: eta + 2 x_2_1 - 1609 z_19_2 >= -1604
 R424: eta + 2 x_3_1 - 1609 z_19_3 >= -1604
 R425: eta + 2 x_4_1 - 1609 z_19_4 >= -1604
Bounds
 x_0_0 <= 40
 x_0_1 <= 3
 x_1_0 <= 40
 x_1_1 <= 3
 x_2_0 <= 40
 x_2_1 <= 3
 x_3_0 <= 40
 x_3_1 <= 3
 x_4_0 <= 40
 x_4_1 <= 3
Binaries
 z_0_0 z_1_0 z_2_0 z_3_0 z_4_0 z_5_0 z_6_0 z_7_0 z_8_0 z_9_0 z_10_0 z_11_0
 z_12_0 z_13_0 z_14_0 z_15_0 z_16_0 z_17_0 z_18_0 z_19_0 z_0_1 z_1_1 z_2_1
 z_3_1 z_4_1 z_5_1 z_6_1 z_7_1 z_8_1 z_9_1 z_10_1 z_11_1 z_12_1 z_13_1
 z_14_1 z_15_1 z_16_1 z_17_1 z_18_1 z_19_1 z_0_2 z_1_2 z_2_2 z_3_2 z_4_2
 z_5_2 z_6_2 z_7_2 z_8_2 z_9_2 z_10_2 z_11_2 z_12_2 z_13_2 z_14_2 z_15_2
 z_16_2 z_17_2 z_18_2 z_19_2 z_0_3 z_1_3 z_2_3 z_3_3 z_4_3 z_5_3 z_6_3
 z_7_3 z_8_3 z_9_3 z_10_3 z_11_3 z_12_3 z_13_3 z_14_3 z_15_3 z_16_3 z_17_3
 z_18_3 z_19_3 z_0_4 z_1_4 z_2_4 z_3_4 z_4_4 z_5_4 z_6_4 z_7_4 z_8_4 z_9_4
 z_10_4 z_11_4 z_12_4 z_13_4 z_14_4 z_15_4 z_16_4 z_17_4 z_18_4 z_19_4
End
